#p Sp, B3LYP/STO-3G formcheck pop=full punch=archive scf=Tight nosymm

comment

0 1
  H +0.67343901 +0.86975853 +0.00000000
  H +0.67343901 -0.86975853 +0.00000000
  O +0.00000000 +0.00000000 +0.00000000


